NAME          DCAP_2_4_3_500_SS121
ROWS
 N  OBJ
 L  CON1
 L  CON2
 L  CON3
 L  CON4
 L  CON5
 L  CON6
 L  CON7
 L  CON8
 L  CON9
 L  CON10
 L  CON11
 L  CON12
 E  CON13
 E  CON14
 E  CON15
 E  CON16
 E  CON17
 E  CON18
 E  CON19
 E  CON20
 E  CON21
 E  CON22
 E  CON23
 E  CON24
COLUMNS
    x[1,1]    OBJ       6.180167      CON1      1.000000    
    x[1,1]    CON7      -1.000000     CON8      -1.000000   
    x[1,1]    CON9      -1.000000   
    x[1,2]    OBJ       6.563535      CON2      1.000000    
    x[1,2]    CON8      -1.000000     CON9      -1.000000   
    x[1,3]    OBJ       7.443064      CON3      1.000000    
    x[1,3]    CON9      -1.000000   
    x[2,1]    OBJ       6.732585      CON4      1.000000    
    x[2,1]    CON10     -1.000000     CON11     -1.000000   
    x[2,1]    CON12     -1.000000   
    x[2,2]    OBJ       5.039546      CON5      1.000000    
    x[2,2]    CON11     -1.000000     CON12     -1.000000   
    x[2,3]    OBJ       6.054841      CON6      1.000000    
    x[2,3]    CON12     -1.000000   
    MARKER    'MARKER'                'INTORG'
    u[1,1]    OBJ       48.076654     CON1      -1.000000   
    u[1,2]    OBJ       20.066487     CON2      -1.000000   
    u[1,3]    OBJ       32.230043     CON3      -1.000000   
    u[2,1]    OBJ       49.996186     CON4      -1.000000   
    u[2,2]    OBJ       49.466655     CON5      -1.000000   
    u[2,3]    OBJ       27.484319     CON6      -1.000000   
    y[1,1,1]  OBJ       7.808759      CON7      1.467493    
    y[1,1,1]  CON13     1.000000    
    y[1,1,2]  OBJ       9.307464      CON8      1.134570    
    y[1,1,2]  CON14     1.000000    
    y[1,1,3]  OBJ       9.020186      CON9      1.248787    
    y[1,1,3]  CON15     1.000000    
    y[1,2,1]  OBJ       5.828954      CON7      1.180333    
    y[1,2,1]  CON16     1.000000    
    y[1,2,2]  OBJ       7.968322      CON8      0.504975    
    y[1,2,2]  CON17     1.000000    
    y[1,2,3]  OBJ       5.860700      CON9      0.939631    
    y[1,2,3]  CON18     1.000000    
    y[1,3,1]  OBJ       5.663214      CON7      1.421362    
    y[1,3,1]  CON19     1.000000    
    y[1,3,2]  OBJ       7.509886      CON8      1.158796    
    y[1,3,2]  CON20     1.000000    
    y[1,3,3]  OBJ       5.835948      CON9      0.517986    
    y[1,3,3]  CON21     1.000000    
    y[1,4,1]  OBJ       8.623642      CON7      0.976374    
    y[1,4,1]  CON22     1.000000    
    y[1,4,2]  OBJ       7.942272      CON8      0.635411    
    y[1,4,2]  CON23     1.000000    
    y[1,4,3]  OBJ       9.202400      CON9      1.169468    
    y[1,4,3]  CON24     1.000000    
    y[2,1,1]  OBJ       6.104337      CON10     1.467493    
    y[2,1,1]  CON13     1.000000    
    y[2,1,2]  OBJ       9.124524      CON11     1.134570    
    y[2,1,2]  CON14     1.000000    
    y[2,1,3]  OBJ       8.193318      CON12     1.248787    
    y[2,1,3]  CON15     1.000000    
    y[2,2,1]  OBJ       7.396287      CON10     1.180333    
    y[2,2,1]  CON16     1.000000    
    y[2,2,2]  OBJ       6.846534      CON11     0.504975    
    y[2,2,2]  CON17     1.000000    
    y[2,2,3]  OBJ       6.386147      CON12     0.939631    
    y[2,2,3]  CON18     1.000000    
    y[2,3,1]  OBJ       7.365424      CON10     1.421362    
    y[2,3,1]  CON19     1.000000    
    y[2,3,2]  OBJ       8.553999      CON11     1.158796    
    y[2,3,2]  CON20     1.000000    
    y[2,3,3]  OBJ       7.343713      CON12     0.517986    
    y[2,3,3]  CON21     1.000000    
    y[2,4,1]  OBJ       6.849105      CON10     0.976374    
    y[2,4,1]  CON22     1.000000    
    y[2,4,2]  OBJ       6.194263      CON11     0.635411    
    y[2,4,2]  CON23     1.000000    
    y[2,4,3]  OBJ       9.800660      CON12     1.169468    
    y[2,4,3]  CON24     1.000000    
    z[1,1]    OBJ       754.362880    CON13     1.000000    
    z[1,2]    OBJ       818.006978    CON14     1.000000    
    z[1,3]    OBJ       936.350684    CON15     1.000000    
    z[2,1]    OBJ       554.819964    CON16     1.000000    
    z[2,2]    OBJ       644.230998    CON17     1.000000    
    z[2,3]    OBJ       725.791420    CON18     1.000000    
    z[3,1]    OBJ       949.228678    CON19     1.000000    
    z[3,2]    OBJ       623.913164    CON20     1.000000    
    z[3,3]    OBJ       973.955420    CON21     1.000000    
    z[4,1]    OBJ       829.513721    CON22     1.000000    
    z[4,2]    OBJ       532.520213    CON23     1.000000    
    z[4,3]    OBJ       677.008484    CON24     1.000000    
    MARKER    'MARKER'                 'INTEND'
RHS
    RHS       CON1      -0.000000     CON2      -0.000000   
    RHS       CON3      -0.000000     CON4      -0.000000   
    RHS       CON5      -0.000000     CON6      -0.000000   
    RHS       CON7      -0.000000     CON8      -0.000000   
    RHS       CON9      -0.000000     CON10     -0.000000   
    RHS       CON11     -0.000000     CON12     -0.000000   
    RHS       CON13     1.000000      CON14     1.000000    
    RHS       CON15     1.000000      CON16     1.000000    
    RHS       CON17     1.000000      CON18     1.000000    
    RHS       CON19     1.000000      CON20     1.000000    
    RHS       CON21     1.000000      CON22     1.000000    
    RHS       CON23     1.000000      CON24     1.000000    
BOUNDS
 BV BOUND     u[1,1]  
 BV BOUND     u[1,2]  
 BV BOUND     u[1,3]  
 BV BOUND     u[2,1]  
 BV BOUND     u[2,2]  
 BV BOUND     u[2,3]  
 BV BOUND     y[1,1,1]
 BV BOUND     y[1,1,2]
 BV BOUND     y[1,1,3]
 BV BOUND     y[1,2,1]
 BV BOUND     y[1,2,2]
 BV BOUND     y[1,2,3]
 BV BOUND     y[1,3,1]
 BV BOUND     y[1,3,2]
 BV BOUND     y[1,3,3]
 BV BOUND     y[1,4,1]
 BV BOUND     y[1,4,2]
 BV BOUND     y[1,4,3]
 BV BOUND     y[2,1,1]
 BV BOUND     y[2,1,2]
 BV BOUND     y[2,1,3]
 BV BOUND     y[2,2,1]
 BV BOUND     y[2,2,2]
 BV BOUND     y[2,2,3]
 BV BOUND     y[2,3,1]
 BV BOUND     y[2,3,2]
 BV BOUND     y[2,3,3]
 BV BOUND     y[2,4,1]
 BV BOUND     y[2,4,2]
 BV BOUND     y[2,4,3]
 BV BOUND     z[1,1]  
 BV BOUND     z[1,2]  
 BV BOUND     z[1,3]  
 BV BOUND     z[2,1]  
 BV BOUND     z[2,2]  
 BV BOUND     z[2,3]  
 BV BOUND     z[3,1]  
 BV BOUND     z[3,2]  
 BV BOUND     z[3,3]  
 BV BOUND     z[4,1]  
 BV BOUND     z[4,2]  
 BV BOUND     z[4,3]  
ENDATA
